15	53
0	1	16
0	4	65
0	6	48
0	7	94
0	9	35
0	10	77
0	11	27
1	5	25
1	7	23
1	8	10
1	9	42
1	10	18
1	11	27
1	12	97
1	13	73
2	3	23
2	4	33
2	5	72
2	6	35
2	7	21
2	9	2
2	10	90
3	5	48
3	10	92
4	6	3
4	8	17
4	10	86
4	14	1
5	6	11
5	7	91
5	8	53
5	9	9
5	10	99
5	13	59
5	14	86
6	7	34
6	11	61
6	12	35
6	13	3
7	9	13
7	10	81
8	10	75
8	11	26
8	12	15
8	13	90
8	14	36
9	10	53
9	11	18
10	11	39
10	12	21
11	14	3
12	13	9
12	14	50
